
******************************************************************************
This program contains Ipopt, a library for large-scale nonlinear optimization.
 Ipopt is released as open source code under the Eclipse Public License (EPL).
         For more information visit http://projects.coin-or.org/Ipopt

This version of Ipopt was compiled from source code available at
    https://github.com/IDAES/Ipopt as part of the Institute for the Design of
    Advanced Energy Systems Process Systems Engineering Framework (IDAES PSE
    Framework) Copyright (c) 2018-2019. See https://github.com/IDAES/idaes-pse.

This version of Ipopt was compiled using HSL, a collection of Fortran codes
    for large-scale scientific computation.  All technical papers, sales and
    publicity material resulting from use of the HSL codes within IPOPT must
    contain the following acknowledgement:
        HSL, a collection of Fortran codes for large-scale scientific
        computation. See http://www.hsl.rl.ac.uk.
******************************************************************************

This is Ipopt version 3.13.2, running with linear solver ma27.

Number of nonzeros in equality constraint Jacobian...:      928
Number of nonzeros in inequality constraint Jacobian.:        0
Number of nonzeros in Lagrangian Hessian.............:      806

Total number of variables............................:      403
                     variables with only lower bounds:      124
                variables with lower and upper bounds:      217
                     variables with only upper bounds:        0
Total number of equality constraints.................:      402
Total number of inequality constraints...............:        0
        inequality constraints with only lower bounds:        0
   inequality constraints with lower and upper bounds:        0
        inequality constraints with only upper bounds:        0

iter    objective    inf_pr   inf_du lg(mu)  ||d||  lg(rg) alpha_du alpha_pr  ls
   0  0.0000000e+00 1.12e+00 8.88e-16  -1.0 0.00e+00    -  0.00e+00 0.00e+00   0
   1  1.1254359e+00 7.44e-01 3.88e+04  -1.0 1.57e+05    -  4.69e-01 4.10e-01h  1
   2  1.1870908e+00 7.31e-01 3.81e+04  -1.0 1.08e+05    -  5.70e-01 1.76e-02h  1
   3  1.9859467e+00 6.11e-01 3.24e+04  -1.0 1.43e+05    -  5.86e-01 1.73e-01h  1
   4  1.1768711e+01 1.71e-01 3.98e+03  -1.0 1.22e+05    -  7.71e-01 9.90e-01h  1
   5  1.3001443e+01 1.59e-02 4.02e+02  -1.0 9.84e+03    -  8.61e-01 9.90e-01h  1
   6  1.3021226e+01 3.05e-04 2.28e+01  -1.0 2.90e+02    -  9.90e-01 9.90e-01h  1
   7  1.3022300e+01 2.96e-04 2.00e+07  -1.0 7.36e+02    -  9.90e-01 3.09e-02f  6
   8  1.3056209e+01 2.77e-04 2.44e+07  -1.0 1.16e+04    -  3.22e-01 6.19e-02f  5
   9  1.3189366e+01 2.28e-04 2.50e+05  -1.0 2.85e+03    -  9.90e-01 9.90e-01H  1
iter    objective    inf_pr   inf_du lg(mu)  ||d||  lg(rg) alpha_du alpha_pr  ls
  10  1.3266729e+01 3.04e-05 2.30e+07  -1.0 1.64e+03    -  1.00e+00 9.90e-01H  1
  11  1.3249621e+01 8.31e-06 2.30e+09  -1.0 3.61e+02    -  1.00e+00 9.90e-01h  1
  12  1.3248573e+01 1.05e-07 2.30e+11  -1.0 2.21e+01    -  1.00e+00 9.90e-01h  1
In iteration 12, 31 Slacks too small, adjusting variable bounds
  13  1.3248560e+01 1.05e-09 2.30e+13  -1.0 2.80e-01    -  1.00e+00 9.90e-01h  1
  14  1.3248560e+01 3.66e-12 1.99e-01  -1.0 2.80e-03    -  1.00e+00 1.00e+00h  1
  15  1.3248449e+01 3.88e-10 2.31e+13  -9.0 7.28e+03    -  9.87e-01 3.19e-04f 12
  16  1.3248338e+01 7.76e-10 2.34e+13  -9.0 5.72e+03    -  9.91e-01 4.06e-04f 12
  17  1.3248282e+01 8.73e-10 2.34e+13  -9.0 5.20e+03    -  9.95e-01 2.23e-04f 13
  18  1.3248227e+01 9.69e-10 2.34e+13  -9.0 4.99e+03    -  1.00e+00 2.33e-04f 13
  19  1.3248172e+01 1.07e-09 2.34e+13  -9.0 4.88e+03    -  1.00e+00 2.37e-04f 13
iter    objective    inf_pr   inf_du lg(mu)  ||d||  lg(rg) alpha_du alpha_pr  ls
  20  1.3023530e+01 3.21e-03 3.72e+11  -9.0 4.82e+03    -  1.00e+00 9.84e-01f  1
  21  1.3020943e+01 2.36e-06 1.63e-02  -9.0 4.64e+01    -  1.00e+00 1.00e+00h  1
  22  1.3020943e+01 9.86e-12 4.32e-08  -9.0 1.49e-03    -  1.00e+00 1.00e+00h  1

Number of Iterations....: 22

                                   (scaled)                 (unscaled)
Objective...............:   1.3020942946591401e+01    1.3020942946591401e+01
Dual infeasibility......:   4.3183040897187664e-08    4.3183040897187664e-08
Constraint violation....:   9.8550057003876645e-12    9.8550057003876645e-12
Complementarity.........:   1.4161293851074965e-09    1.4161293851074965e-09
Overall NLP error.......:   3.1714215893306999e-10    4.3183040897187664e-08


Number of objective function evaluations             = 112
Number of objective gradient evaluations             = 23
Number of equality constraint evaluations            = 112
Number of inequality constraint evaluations          = 0
Number of equality constraint Jacobian evaluations   = 23
Number of inequality constraint Jacobian evaluations = 0
Number of Lagrangian Hessian evaluations             = 22
Total CPU secs in IPOPT (w/o function evaluations)   =      0.034
Total CPU secs in NLP function evaluations           =      0.743

EXIT: Optimal Solution Found.
